(set-logic HORN)
(set-info :source |
    Benchmark: C_VC
    Output by Princess (http://www.philipp.ruemmer.org/princess.shtml)
|)
(set-info :status sat)
;===============================================================================
; Encoding of Heap sorts and operations
;-------------------------------------------------------------------------------
(define-sort Addr() Int)
(declare-datatypes ((HeapObject 0) (node 0))
                   (((O_Int (getInt Int)) (O_UInt (getUInt Int)) (O_Addr (getAddr Addr)) (O_node (getnode node)) (defObj))
                   ((node (data Int) (next Addr)))))
(declare-datatypes ((AllocResHeap 0) (Heap 0))
                   (((AllocResHeap   (newHeap Heap) (newAddr Addr)))
                    ((HeapCtor (HeapSize Int)
                               (HeapContents (Array Addr HeapObject))))))
(define-fun nullAddr  () Addr 0)
(define-fun valid     ((h Heap) (p Addr)) Bool
  (and (>= (HeapSize h) p) (> p 0)))
(define-fun emptyHeap () Heap (
  HeapCtor 0 (( as const (Array Addr HeapObject)) defObj)))
(define-fun read ((h Heap) (p Addr)) HeapObject
  (ite (valid h p)
       (select (HeapContents h) p)
       defObj))
(define-fun write ((h Heap) (p Addr) (o HeapObject)) Heap
  (ite (valid h p)
       (HeapCtor (HeapSize h) (store (HeapContents h) p o))
       h))
(define-fun alloc   ((h Heap) (o HeapObject)) AllocResHeap
  (AllocResHeap (HeapCtor (+ 1 (HeapSize h))
                    (store (HeapContents h) (+ 1 (HeapSize h)) o))
          (+ 1 (HeapSize h))))

;===============================================================================
(declare-fun inv_main10 (Heap Int Int Int Int Addr) Bool)
(declare-fun inv_main17 (Heap Int Int Int Int Addr Int Addr) Bool)
(declare-fun inv_main20 (Heap Int Int Int Int Addr Int Addr Int) Bool)
(declare-fun inv_main23 (Heap Int Int Int Int Addr Int Addr) Bool)
(declare-fun inv_main25 (Heap Int Int Int Int Addr Addr) Bool)
(declare-fun inv_main33 (Heap Int Int Addr Int Int) Bool)
(declare-fun inv_main4 (Heap Int Int) Bool)
(declare-fun inv_main41 (Heap Int Int Addr Int) Bool)
(assert (forall ((var0 Heap)) (or (not (= var0 emptyHeap)) (inv_main4 var0 2 1))))
(assert (forall ((var0 Addr) (var1 Int) (var2 Addr) (var3 Int) (var4 Int) (var5 Int) (var6 Int) (var7 Heap) (var8 Addr) (var9 Int) (var10 Addr) (var11 Int) (var12 Int) (var13 Int) (var14 Int) (var15 Heap)) (or (not (and (inv_main23 var15 var14 var13 var12 var11 var10 var9 var8) (and (is-O_node (read var15 var8)) (and (and (and (and (and (and (and (= var7 (write var15 var8 (O_node (node var9 (next (getnode (read var15 var8))))))) (= var6 var14)) (= var5 var13)) (= var4 var12)) (= var3 var11)) (= var2 var10)) (= var1 var9)) (= var0 var8))))) (inv_main25 var7 var6 var5 var4 var3 var2 var0))))
(assert (forall ((var0 Addr) (var1 Addr) (var2 Int) (var3 Int) (var4 Int) (var5 Int) (var6 Heap) (var7 Addr) (var8 Addr) (var9 Int) (var10 Int) (var11 Int) (var12 Int) (var13 Heap)) (or (not (and (inv_main25 var13 var12 var11 var10 var9 var8 var7) (and (is-O_node (read var13 var7)) (and (and (and (and (and (and (= var6 (write var13 var7 (O_node (node (data (getnode (read var13 var7))) var8)))) (= var5 var12)) (= var4 var11)) (= var3 var10)) (= var2 var9)) (= var1 var8)) (= var0 var7))))) (inv_main10 var6 var5 var4 (+ var3 (- 1)) var2 var0))))
(assert (forall ((var0 Addr) (var1 Int) (var2 Int) (var3 Int) (var4 Int) (var5 Heap) (var6 Int) (var7 Int) (var8 Heap)) (or (not (and (inv_main4 var8 var7 var6) (and (and (and (and (and (= var5 var8) (= var4 var7)) (= var3 var6)) (= var2 var7)) (= var1 var6)) (= var0 nullAddr)))) (inv_main10 var5 var4 var3 var2 var1 var0))))
(assert (forall ((var0 Addr) (var1 Int) (var2 Addr) (var3 Int) (var4 Int) (var5 Int) (var6 Int) (var7 Heap)) (or (not (and (inv_main17 var7 var6 var5 var4 var3 var2 var1 var0) (is-O_node (read var7 var0)))) (inv_main23 (write var7 var0 (O_node (node (data (getnode (read var7 var0))) nullAddr))) var6 var5 var4 var3 var2 var1 var0))))
(assert (forall ((var0 Addr) (var1 Int) (var2 Addr) (var3 Int) (var4 Int) (var5 Heap) (var6 Addr) (var7 Int) (var8 Int) (var9 Addr) (var10 Int) (var11 Int) (var12 Heap) (var13 Int) (var14 Int) (var15 Int) (var16 Addr) (var17 Int) (var18 Int) (var19 Heap)) (or (not (and (inv_main33 var19 var18 var17 var16 var15 var14) (and (<= 0 (+ var13 (- 1))) (and (and (is-O_node (read var19 var16)) (and (and (and (and (and (and (= var12 var19) (= var11 var18)) (= var10 var17)) (= var9 var16)) (= var8 var15)) (= var7 var14)) (= var6 (next (getnode (read var19 var16)))))) (and (and (and (and (and (and (= var5 (write var12 var9 defObj)) (= var4 var11)) (= var3 var10)) (= var2 var9)) (= var13 var8)) (= var1 var7)) (= var0 var6)))))) (inv_main33 var5 var4 var3 var0 (+ var13 (- 1)) 3))))
(assert (forall ((var0 Addr) (var1 Int) (var2 Int) (var3 Int) (var4 Int) (var5 Heap)) (or (not (and (inv_main10 var5 var4 var3 var2 var1 var0) (and (<= 0 (+ var4 (- 1))) (not (<= 0 (+ var2 (- 1))))))) (inv_main33 var5 var4 var3 var0 (+ var4 (- 1)) 3))))
(assert (forall ((var0 Int) (var1 Addr) (var2 Int) (var3 Addr) (var4 Int) (var5 Int) (var6 Int) (var7 Int) (var8 Heap)) (or (not (inv_main20 var8 var7 var6 var5 var4 var3 var2 var1 var0)) (inv_main20 var8 var7 var6 var5 var4 var3 var2 var1 var0))))
(assert (forall ((var0 Int) (var1 Addr) (var2 Int) (var3 Int) (var4 Int) (var5 Int) (var6 node) (var7 Heap) (var8 Addr) (var9 Addr) (var10 Int) (var11 Int) (var12 Int) (var13 Int) (var14 Heap)) (or (not (and (inv_main10 var14 var13 var12 var11 var10 var9) (and (and (= nullAddr var8) (and (and (and (and (and (and (and (= var7 (newHeap (alloc var14 (O_node var6)))) (= var5 var13)) (= var4 var12)) (= var3 var11)) (= var2 var10)) (= var1 var9)) (= var0 var10)) (= var8 (newAddr (alloc var14 (O_node var6)))))) (<= 0 (+ var11 (- 1)))))) (inv_main20 var7 var5 var4 var3 var2 var1 var0 var8 1))))
(assert (forall ((var0 Int) (var1 Addr) (var2 Int) (var3 Int) (var4 Heap) (var5 Addr) (var6 Int) (var7 Int) (var8 Addr) (var9 Int) (var10 Int) (var11 Heap) (var12 Int) (var13 Addr) (var14 Int) (var15 Int) (var16 Addr) (var17 Int) (var18 Int) (var19 Heap)) (or (not (and (inv_main33 var19 var18 var17 var16 var15 var14) (and (and (not (= nullAddr var13)) (not (<= 0 (+ var12 (- 1))))) (and (and (is-O_node (read var19 var16)) (and (and (and (and (and (and (= var11 var19) (= var10 var18)) (= var9 var17)) (= var8 var16)) (= var7 var15)) (= var6 var14)) (= var5 (next (getnode (read var19 var16)))))) (and (and (and (and (and (and (= var4 (write var11 var8 defObj)) (= var3 var10)) (= var2 var9)) (= var1 var8)) (= var12 var7)) (= var0 var6)) (= var13 var5)))))) (inv_main41 var4 var3 var2 var13 (+ var12 (- 1))))))
(assert (forall ((var0 Addr) (var1 Int) (var2 Int) (var3 Int) (var4 Int) (var5 Heap)) (or (not (and (inv_main10 var5 var4 var3 var2 var1 var0) (and (and (not (= nullAddr var0)) (not (<= 0 (+ var4 (- 1))))) (not (<= 0 (+ var2 (- 1))))))) (inv_main41 var5 var4 var3 var0 (+ var4 (- 1))))))
(assert (forall ((var0 Int) (var1 Addr) (var2 Int) (var3 Int) (var4 Int) (var5 Int) (var6 node) (var7 Heap) (var8 Addr) (var9 Addr) (var10 Int) (var11 Int) (var12 Int) (var13 Int) (var14 Heap)) (or (not (and (inv_main10 var14 var13 var12 var11 var10 var9) (and (and (not (= nullAddr var8)) (and (and (and (and (and (and (and (= var7 (newHeap (alloc var14 (O_node var6)))) (= var5 var13)) (= var4 var12)) (= var3 var11)) (= var2 var10)) (= var1 var9)) (= var0 var10)) (= var8 (newAddr (alloc var14 (O_node var6)))))) (<= 0 (+ var11 (- 1)))))) (inv_main17 var7 var5 var4 var3 var2 var1 var0 var8))))
(assert (forall ((var0 Addr) (var1 Int) (var2 Addr) (var3 Int) (var4 Int) (var5 Int) (var6 Int) (var7 Heap)) (not (and (inv_main17 var7 var6 var5 var4 var3 var2 var1 var0) (not (is-O_node (read var7 var0)))))))
(assert (forall ((var0 Addr) (var1 Int) (var2 Addr) (var3 Int) (var4 Int) (var5 Int) (var6 Int) (var7 Heap)) (not (and (inv_main23 var7 var6 var5 var4 var3 var2 var1 var0) (not (is-O_node (read var7 var0)))))))
(assert (forall ((var0 Addr) (var1 Addr) (var2 Int) (var3 Int) (var4 Int) (var5 Int) (var6 Heap)) (not (and (inv_main25 var6 var5 var4 var3 var2 var1 var0) (not (is-O_node (read var6 var0)))))))
(assert (forall ((var0 Int) (var1 Int) (var2 Addr) (var3 Int) (var4 Int) (var5 Heap)) (not (and (inv_main33 var5 var4 var3 var2 var1 var0) (not (is-O_node (read var5 var2)))))))
(assert (forall ((var0 Int) (var1 Addr) (var2 Int) (var3 Int) (var4 Heap)) (not (inv_main41 var4 var3 var2 var1 var0))))
(check-sat)
